p edge 250 3127
e 0 13
e 0 16
e 0 51
e 0 54
e 0 65
e 0 70
e 0 72
e 0 118
e 0 127
e 0 159
e 0 163
e 0 172
e 0 173
e 0 179
e 0 201
e 0 215
e 0 220
e 0 249
e 1 7
e 1 14
e 1 21
e 1 30
e 1 36
e 1 41
e 1 69
e 1 73
e 1 82
e 1 98
e 1 108
e 1 114
e 1 116
e 1 120
e 1 129
e 1 176
e 1 178
e 1 180
e 1 191
e 1 208
e 1 210
e 1 217
e 1 221
e 1 223
e 1 227
e 2 15
e 2 16
e 2 51
e 2 52
e 2 58
e 2 63
e 2 67
e 2 71
e 2 76
e 2 93
e 2 98
e 2 99
e 2 101
e 2 108
e 2 116
e 2 139
e 2 143
e 2 146
e 2 157
e 2 172
e 2 184
e 2 211
e 2 227
e 2 243
e 2 248
e 3 4
e 3 10
e 3 25
e 3 31
e 3 33
e 3 45
e 3 53
e 3 59
e 3 64
e 3 67
e 3 79
e 3 91
e 3 94
e 3 106
e 3 107
e 3 109
e 3 153
e 3 157
e 3 174
e 3 176
e 3 180
e 3 189
e 3 206
e 3 207
e 3 214
e 3 216
e 3 224
e 3 227
e 3 230
e 3 237
e 4 6
e 4 11
e 4 13
e 4 19
e 4 26
e 4 27
e 4 51
e 4 63
e 4 70
e 4 76
e 4 77
e 4 100
e 4 106
e 4 121
e 4 128
e 4 136
e 4 156
e 4 166
e 4 175
e 4 181
e 4 186
e 4 188
e 4 199
e 4 208
e 4 212
e 4 217
e 4 222
e 4 227
e 5 12
e 5 18
e 5 20
e 5 22
e 5 35
e 5 45
e 5 52
e 5 58
e 5 61
e 5 91
e 5 98
e 5 100
e 5 102
e 5 106
e 5 112
e 5 123
e 5 130
e 5 131
e 5 134
e 5 143
e 5 164
e 5 182
e 5 187
e 5 225
e 5 231
e 5 244
e 6 10
e 6 51
e 6 65
e 6 81
e 6 85
e 6 101
e 6 104
e 6 107
e 6 110
e 6 127
e 6 136
e 6 157
e 6 165
e 6 175
e 6 177
e 6 179
e 6 183
e 6 194
e 6 209
e 6 235
e 6 238
e 6 242
e 7 12
e 7 16
e 7 18
e 7 24
e 7 31
e 7 37
e 7 41
e 7 43
e 7 51
e 7 63
e 7 84
e 7 101
e 7 105
e 7 114
e 7 125
e 7 129
e 7 131
e 7 138
e 7 163
e 7 171
e 7 185
e 7 188
e 7 189
e 7 190
e 7 198
e 7 206
e 7 215
e 7 223
e 7 224
e 7 236
e 7 238
e 7 243
e 8 29
e 8 40
e 8 42
e 8 54
e 8 56
e 8 58
e 8 68
e 8 73
e 8 91
e 8 92
e 8 134
e 8 162
e 8 177
e 8 190
e 8 205
e 8 211
e 8 228
e 9 15
e 9 29
e 9 58
e 9 64
e 9 67
e 9 69
e 9 81
e 9 83
e 9 101
e 9 103
e 9 118
e 9 121
e 9 125
e 9 140
e 9 142
e 9 162
e 9 168
e 9 179
e 9 183
e 9 190
e 9 196
e 9 202
e 9 216
e 9 233
e 9 249
e 10 16
e 10 17
e 10 22
e 10 32
e 10 65
e 10 76
e 10 91
e 10 100
e 10 126
e 10 133
e 10 137
e 10 149
e 10 154
e 10 167
e 10 169
e 10 179
e 10 182
e 10 198
e 10 207
e 10 210
e 10 224
e 10 232
e 11 13
e 11 14
e 11 19
e 11 20
e 11 28
e 11 31
e 11 47
e 11 60
e 11 72
e 11 83
e 11 113
e 11 116
e 11 122
e 11 135
e 11 140
e 11 144
e 11 153
e 11 167
e 11 172
e 11 184
e 11 194
e 11 209
e 11 211
e 11 216
e 11 220
e 11 231
e 11 239
e 11 242
e 12 14
e 12 30
e 12 31
e 12 35
e 12 81
e 12 139
e 12 171
e 12 184
e 12 185
e 12 188
e 12 197
e 12 212
e 12 214
e 12 232
e 12 238
e 12 247
e 13 29
e 13 39
e 13 44
e 13 59
e 13 71
e 13 79
e 13 94
e 13 102
e 13 112
e 13 113
e 13 124
e 13 138
e 13 140
e 13 141
e 13 157
e 13 217
e 13 223
e 14 36
e 14 56
e 14 59
e 14 65
e 14 70
e 14 77
e 14 89
e 14 109
e 14 117
e 14 129
e 14 131
e 14 157
e 14 168
e 14 181
e 14 182
e 14 191
e 14 202
e 14 212
e 14 218
e 14 219
e 14 236
e 14 243
e 14 246
e 15 17
e 15 20
e 15 45
e 15 49
e 15 105
e 15 110
e 15 111
e 15 119
e 15 123
e 15 142
e 15 146
e 15 147
e 15 148
e 15 168
e 15 177
e 15 185
e 15 194
e 15 212
e 15 248
e 16 72
e 16 87
e 16 102
e 16 115
e 16 122
e 16 126
e 16 128
e 16 138
e 16 163
e 16 165
e 16 175
e 16 184
e 16 194
e 16 205
e 16 207
e 16 208
e 16 221
e 17 22
e 17 26
e 17 29
e 17 34
e 17 39
e 17 51
e 17 58
e 17 59
e 17 71
e 17 76
e 17 87
e 17 88
e 17 135
e 17 138
e 17 145
e 17 154
e 17 162
e 17 166
e 17 182
e 17 183
e 17 191
e 17 198
e 17 201
e 17 205
e 17 207
e 17 240
e 17 248
e 18 27
e 18 28
e 18 29
e 18 39
e 18 45
e 18 47
e 18 52
e 18 61
e 18 64
e 18 70
e 18 75
e 18 82
e 18 87
e 18 111
e 18 119
e 18 128
e 18 138
e 18 165
e 18 177
e 18 181
e 18 186
e 18 191
e 18 193
e 18 198
e 18 201
e 18 221
e 18 235
e 18 243
e 18 246
e 19 41
e 19 51
e 19 53
e 19 60
e 19 63
e 19 74
e 19 75
e 19 83
e 19 86
e 19 91
e 19 94
e 19 119
e 19 127
e 19 152
e 19 154
e 19 162
e 19 170
e 19 178
e 19 197
e 19 198
e 19 206
e 19 213
e 19 219
e 19 228
e 19 236
e 19 240
e 19 246
e 20 21
e 20 23
e 20 28
e 20 31
e 20 41
e 20 43
e 20 72
e 20 76
e 20 85
e 20 91
e 20 96
e 20 98
e 20 104
e 20 112
e 20 118
e 20 165
e 20 183
e 20 190
e 20 193
e 20 210
e 20 212
e 20 241
e 21 40
e 21 51
e 21 56
e 21 58
e 21 64
e 21 66
e 21 67
e 21 89
e 21 91
e 21 115
e 21 120
e 21 121
e 21 142
e 21 154
e 21 170
e 21 174
e 21 182
e 21 186
e 21 190
e 21 195
e 21 198
e 21 205
e 21 208
e 21 209
e 21 227
e 21 236
e 21 242
e 22 50
e 22 59
e 22 74
e 22 79
e 22 80
e 22 82
e 22 95
e 22 127
e 22 132
e 22 140
e 22 143
e 22 163
e 22 166
e 22 210
e 23 25
e 23 30
e 23 63
e 23 71
e 23 75
e 23 76
e 23 79
e 23 84
e 23 94
e 23 101
e 23 102
e 23 123
e 23 135
e 23 138
e 23 152
e 23 155
e 23 158
e 23 159
e 23 163
e 23 184
e 23 190
e 23 191
e 23 194
e 23 205
e 23 209
e 23 225
e 23 249
e 24 29
e 24 58
e 24 62
e 24 69
e 24 73
e 24 77
e 24 82
e 24 83
e 24 93
e 24 129
e 24 153
e 24 158
e 24 167
e 24 173
e 24 182
e 24 184
e 24 190
e 24 211
e 24 213
e 24 214
e 24 218
e 24 229
e 24 241
e 24 245
e 25 26
e 25 55
e 25 56
e 25 57
e 25 64
e 25 73
e 25 84
e 25 103
e 25 112
e 25 122
e 25 124
e 25 127
e 25 139
e 25 143
e 25 148
e 25 152
e 25 163
e 25 172
e 25 205
e 25 212
e 25 229
e 25 233
e 25 234
e 25 241
e 26 33
e 26 43
e 26 46
e 26 69
e 26 74
e 26 75
e 26 80
e 26 83
e 26 95
e 26 107
e 26 108
e 26 115
e 26 128
e 26 136
e 26 140
e 26 147
e 26 150
e 26 167
e 26 179
e 26 180
e 26 196
e 26 214
e 26 217
e 26 227
e 26 229
e 26 238
e 26 239
e 26 243
e 26 244
e 27 36
e 27 39
e 27 57
e 27 61
e 27 71
e 27 88
e 27 109
e 27 110
e 27 113
e 27 149
e 27 155
e 27 167
e 27 171
e 27 172
e 27 173
e 27 186
e 27 202
e 27 211
e 27 216
e 27 217
e 27 228
e 27 241
e 28 30
e 28 47
e 28 48
e 28 58
e 28 65
e 28 84
e 28 89
e 28 90
e 28 91
e 28 95
e 28 124
e 28 129
e 28 133
e 28 135
e 28 159
e 28 164
e 28 172
e 28 183
e 28 185
e 28 190
e 28 192
e 28 198
e 28 205
e 28 218
e 28 245
e 29 45
e 29 48
e 29 57
e 29 74
e 29 93
e 29 94
e 29 95
e 29 108
e 29 122
e 29 142
e 29 143
e 29 151
e 29 155
e 29 157
e 29 184
e 29 186
e 29 191
e 29 194
e 29 197
e 29 211
e 29 223
e 29 231
e 30 38
e 30 46
e 30 58
e 30 66
e 30 75
e 30 78
e 30 89
e 30 90
e 30 91
e 30 103
e 30 107
e 30 108
e 30 114
e 30 116
e 30 126
e 30 134
e 30 176
e 30 178
e 30 198
e 30 223
e 30 243
e 31 37
e 31 41
e 31 65
e 31 80
e 31 87
e 31 89
e 31 95
e 31 99
e 31 103
e 31 126
e 31 127
e 31 132
e 31 151
e 31 179
e 31 182
e 31 191
e 31 198
e 31 207
e 31 217
e 31 226
e 31 239
e 31 245
e 31 249
e 32 43
e 32 53
e 32 57
e 32 61
e 32 69
e 32 79
e 32 83
e 32 86
e 32 134
e 32 143
e 32 145
e 32 161
e 32 178
e 32 191
e 32 195
e 32 209
e 32 229
e 32 234
e 32 237
e 32 241
e 32 247
e 33 53
e 33 56
e 33 70
e 33 71
e 33 87
e 33 92
e 33 93
e 33 100
e 33 108
e 33 118
e 33 135
e 33 154
e 33 165
e 33 179
e 33 191
e 33 201
e 33 211
e 33 216
e 33 222
e 33 233
e 33 238
e 33 243
e 33 246
e 34 48
e 34 65
e 34 90
e 34 123
e 34 125
e 34 127
e 34 140
e 34 160
e 34 179
e 34 201
e 34 225
e 34 226
e 34 233
e 34 248
e 35 50
e 35 66
e 35 70
e 35 85
e 35 86
e 35 92
e 35 105
e 35 115
e 35 117
e 35 121
e 35 126
e 35 137
e 35 171
e 35 205
e 35 215
e 35 228
e 35 235
e 35 249
e 36 38
e 36 45
e 36 50
e 36 86
e 36 96
e 36 97
e 36 103
e 36 107
e 36 129
e 36 173
e 36 181
e 36 186
e 36 187
e 36 204
e 36 240
e 36 248
e 37 38
e 37 44
e 37 53
e 37 66
e 37 69
e 37 76
e 37 80
e 37 95
e 37 120
e 37 123
e 37 139
e 37 167
e 37 182
e 37 184
e 37 185
e 37 188
e 37 194
e 37 195
e 37 207
e 37 221
e 37 223
e 37 224
e 38 46
e 38 66
e 38 72
e 38 79
e 38 82
e 38 84
e 38 85
e 38 90
e 38 92
e 38 97
e 38 100
e 38 104
e 38 112
e 38 119
e 38 120
e 38 136
e 38 138
e 38 148
e 38 162
e 38 173
e 38 186
e 38 202
e 38 214
e 38 221
e 39 41
e 39 83
e 39 93
e 39 98
e 39 128
e 39 134
e 39 142
e 39 150
e 39 158
e 39 163
e 39 164
e 39 165
e 39 177
e 39 182
e 39 192
e 39 196
e 39 205
e 39 209
e 39 220
e 39 228
e 39 232
e 39 234
e 39 242
e 39 249
e 40 56
e 40 62
e 40 76
e 40 78
e 40 96
e 40 104
e 40 107
e 40 111
e 40 120
e 40 137
e 40 141
e 40 143
e 40 151
e 40 157
e 40 177
e 40 224
e 40 237
e 40 247
e 41 50
e 41 51
e 41 63
e 41 70
e 41 79
e 41 81
e 41 86
e 41 92
e 41 97
e 41 98
e 41 101
e 41 116
e 41 125
e 41 130
e 41 131
e 41 139
e 41 140
e 41 150
e 41 152
e 41 155
e 41 170
e 41 173
e 41 174
e 41 177
e 41 184
e 41 193
e 41 203
e 41 220
e 41 231
e 41 242
e 41 244
e 41 246
e 42 44
e 42 60
e 42 86
e 42 91
e 42 108
e 42 114
e 42 125
e 42 131
e 42 135
e 42 136
e 42 137
e 42 141
e 42 146
e 42 147
e 42 159
e 42 184
e 42 185
e 42 199
e 42 214
e 42 226
e 42 237
e 42 243
e 42 244
e 43 44
e 43 53
e 43 54
e 43 66
e 43 82
e 43 83
e 43 115
e 43 123
e 43 129
e 43 145
e 43 147
e 43 162
e 43 184
e 43 193
e 43 201
e 43 243
e 43 248
e 44 49
e 44 52
e 44 68
e 44 69
e 44 70
e 44 77
e 44 80
e 44 83
e 44 105
e 44 112
e 44 120
e 44 128
e 44 138
e 44 152
e 44 171
e 44 180
e 44 189
e 44 198
e 44 208
e 44 229
e 44 244
e 45 46
e 45 51
e 45 52
e 45 62
e 45 70
e 45 78
e 45 87
e 45 116
e 45 125
e 45 132
e 45 147
e 45 150
e 45 177
e 45 183
e 45 205
e 45 226
e 45 234
e 45 237
e 45 239
e 45 248
e 46 49
e 46 63
e 46 64
e 46 68
e 46 69
e 46 79
e 46 88
e 46 98
e 46 105
e 46 120
e 46 130
e 46 131
e 46 138
e 46 143
e 46 173
e 46 190
e 46 199
e 46 216
e 46 227
e 46 244
e 46 246
e 46 247
e 47 60
e 47 68
e 47 73
e 47 82
e 47 85
e 47 93
e 47 113
e 47 122
e 47 123
e 47 127
e 47 185
e 47 191
e 47 193
e 47 213
e 47 232
e 48 53
e 48 65
e 48 75
e 48 86
e 48 88
e 48 129
e 48 144
e 48 146
e 48 160
e 48 167
e 48 169
e 48 170
e 48 173
e 48 183
e 48 189
e 48 198
e 48 214
e 49 56
e 49 65
e 49 115
e 49 120
e 49 124
e 49 126
e 49 127
e 49 129
e 49 146
e 49 149
e 49 158
e 49 165
e 49 173
e 49 175
e 49 177
e 49 186
e 49 187
e 49 195
e 49 226
e 49 240
e 50 66
e 50 70
e 50 75
e 50 127
e 50 138
e 50 158
e 50 181
e 50 193
e 50 198
e 50 200
e 50 208
e 50 211
e 50 232
e 50 240
e 50 241
e 50 243
e 51 65
e 51 72
e 51 83
e 51 86
e 51 88
e 51 101
e 51 102
e 51 127
e 51 143
e 51 155
e 51 181
e 51 183
e 51 184
e 51 190
e 51 191
e 51 215
e 51 232
e 51 245
e 52 59
e 52 76
e 52 83
e 52 84
e 52 96
e 52 122
e 52 127
e 52 129
e 52 133
e 52 144
e 52 147
e 52 150
e 52 162
e 52 178
e 52 193
e 52 194
e 52 195
e 52 196
e 52 202
e 52 216
e 52 217
e 52 219
e 52 226
e 52 234
e 53 69
e 53 94
e 53 102
e 53 103
e 53 109
e 53 111
e 53 125
e 53 134
e 53 153
e 53 158
e 53 167
e 53 178
e 53 197
e 53 214
e 53 227
e 53 230
e 53 232
e 54 61
e 54 82
e 54 86
e 54 98
e 54 101
e 54 108
e 54 111
e 54 116
e 54 117
e 54 118
e 54 121
e 54 123
e 54 135
e 54 150
e 54 153
e 54 161
e 54 162
e 54 167
e 54 168
e 54 175
e 54 177
e 54 199
e 54 214
e 54 225
e 54 233
e 54 236
e 54 240
e 54 241
e 55 60
e 55 98
e 55 118
e 55 152
e 55 166
e 55 168
e 55 170
e 55 176
e 55 183
e 55 190
e 55 192
e 55 215
e 55 230
e 55 235
e 55 236
e 55 237
e 55 244
e 56 61
e 56 81
e 56 90
e 56 101
e 56 111
e 56 116
e 56 130
e 56 135
e 56 146
e 56 156
e 56 157
e 56 168
e 56 183
e 56 186
e 56 217
e 56 221
e 56 238
e 57 61
e 57 78
e 57 88
e 57 93
e 57 96
e 57 98
e 57 129
e 57 156
e 57 171
e 57 187
e 57 196
e 57 233
e 57 249
e 58 59
e 58 84
e 58 93
e 58 102
e 58 104
e 58 105
e 58 123
e 58 147
e 58 148
e 58 153
e 58 163
e 58 179
e 58 193
e 58 197
e 58 210
e 59 67
e 59 81
e 59 89
e 59 96
e 59 109
e 59 113
e 59 122
e 59 129
e 59 138
e 59 155
e 59 159
e 59 174
e 59 186
e 59 188
e 59 194
e 59 228
e 59 234
e 59 242
e 60 67
e 60 100
e 60 105
e 60 110
e 60 113
e 60 119
e 60 140
e 60 147
e 60 149
e 60 158
e 60 194
e 60 201
e 60 205
e 60 228
e 60 231
e 60 245
e 61 64
e 61 72
e 61 82
e 61 84
e 61 86
e 61 87
e 61 102
e 61 145
e 61 161
e 61 171
e 61 191
e 61 204
e 61 206
e 61 209
e 61 213
e 61 214
e 61 217
e 61 228
e 61 229
e 61 233
e 61 238
e 61 243
e 61 244
e 61 246
e 62 80
e 62 96
e 62 107
e 62 111
e 62 117
e 62 122
e 62 134
e 62 135
e 62 144
e 62 150
e 62 163
e 62 167
e 62 169
e 62 176
e 62 189
e 62 195
e 62 206
e 62 216
e 62 217
e 62 224
e 62 231
e 62 238
e 63 70
e 63 91
e 63 99
e 63 112
e 63 113
e 63 116
e 63 123
e 63 136
e 63 139
e 63 142
e 63 148
e 63 149
e 63 163
e 63 172
e 63 175
e 63 179
e 63 194
e 63 205
e 63 208
e 63 213
e 63 218
e 63 226
e 63 233
e 63 237
e 64 74
e 64 76
e 64 80
e 64 93
e 64 141
e 64 157
e 64 163
e 64 164
e 64 173
e 64 174
e 64 180
e 64 201
e 64 210
e 64 230
e 64 237
e 64 243
e 64 246
e 65 71
e 65 82
e 65 100
e 65 105
e 65 106
e 65 116
e 65 120
e 65 141
e 65 142
e 65 143
e 65 153
e 65 175
e 65 177
e 65 179
e 65 183
e 65 194
e 65 201
e 65 203
e 65 225
e 65 230
e 65 238
e 65 244
e 65 249
e 66 71
e 66 73
e 66 79
e 66 91
e 66 119
e 66 127
e 66 132
e 66 141
e 66 159
e 66 175
e 66 186
e 66 187
e 66 194
e 66 210
e 66 211
e 66 213
e 66 218
e 66 238
e 66 239
e 66 240
e 66 243
e 67 73
e 67 86
e 67 114
e 67 130
e 67 135
e 67 146
e 67 160
e 67 164
e 67 170
e 67 200
e 67 210
e 67 220
e 67 224
e 67 239
e 67 249
e 68 90
e 68 91
e 68 98
e 68 116
e 68 123
e 68 129
e 68 145
e 68 153
e 68 155
e 68 157
e 68 159
e 68 160
e 68 167
e 68 186
e 68 187
e 68 200
e 68 212
e 68 213
e 68 234
e 68 237
e 68 238
e 68 240
e 69 82
e 69 84
e 69 89
e 69 90
e 69 113
e 69 132
e 69 136
e 69 143
e 69 159
e 69 160
e 69 166
e 69 167
e 69 168
e 69 176
e 69 181
e 69 187
e 69 188
e 69 217
e 69 229
e 69 245
e 70 102
e 70 111
e 70 126
e 70 127
e 70 145
e 70 160
e 70 161
e 70 170
e 70 172
e 70 184
e 70 188
e 70 199
e 70 200
e 70 203
e 70 239
e 71 75
e 71 85
e 71 117
e 71 124
e 71 126
e 71 137
e 71 147
e 71 148
e 71 154
e 71 181
e 71 185
e 71 193
e 71 198
e 71 202
e 71 205
e 71 217
e 71 225
e 71 231
e 71 237
e 71 243
e 71 247
e 72 85
e 72 131
e 72 169
e 72 187
e 72 189
e 72 229
e 73 97
e 73 109
e 73 113
e 73 126
e 73 127
e 73 134
e 73 135
e 73 137
e 73 140
e 73 147
e 73 166
e 73 167
e 73 171
e 73 186
e 73 202
e 73 229
e 73 249
e 74 77
e 74 99
e 74 106
e 74 107
e 74 110
e 74 118
e 74 125
e 74 127
e 74 131
e 74 132
e 74 136
e 74 139
e 74 146
e 74 156
e 74 157
e 74 170
e 74 171
e 74 192
e 74 212
e 74 213
e 74 215
e 74 222
e 74 227
e 74 244
e 74 245
e 75 76
e 75 95
e 75 98
e 75 105
e 75 119
e 75 130
e 75 140
e 75 149
e 75 150
e 75 160
e 75 177
e 75 195
e 75 216
e 75 217
e 75 219
e 75 224
e 75 229
e 75 231
e 76 77
e 76 81
e 76 91
e 76 116
e 76 137
e 76 142
e 76 151
e 76 156
e 76 187
e 76 195
e 76 198
e 76 235
e 76 240
e 76 241
e 76 245
e 77 86
e 77 97
e 77 123
e 77 124
e 77 146
e 77 193
e 77 197
e 77 208
e 77 214
e 77 215
e 77 220
e 77 232
e 77 245
e 78 86
e 78 146
e 78 172
e 78 182
e 78 186
e 78 202
e 78 204
e 78 211
e 78 216
e 78 219
e 78 220
e 79 104
e 79 107
e 79 114
e 79 117
e 79 123
e 79 132
e 79 145
e 79 150
e 79 165
e 79 166
e 79 170
e 79 175
e 79 180
e 79 188
e 79 197
e 79 209
e 79 214
e 79 216
e 79 236
e 80 93
e 80 113
e 80 118
e 80 122
e 80 125
e 80 146
e 80 149
e 80 153
e 80 159
e 80 175
e 80 181
e 80 194
e 80 208
e 80 214
e 80 216
e 80 217
e 80 243
e 81 90
e 81 99
e 81 105
e 81 107
e 81 109
e 81 115
e 81 123
e 81 125
e 81 127
e 81 153
e 81 170
e 81 190
e 81 204
e 81 207
e 81 219
e 81 227
e 81 237
e 82 102
e 82 118
e 82 131
e 82 142
e 82 150
e 82 151
e 82 155
e 82 158
e 82 165
e 82 169
e 82 173
e 82 183
e 82 191
e 82 197
e 82 200
e 82 202
e 82 206
e 82 219
e 82 224
e 83 95
e 83 106
e 83 116
e 83 124
e 83 130
e 83 154
e 83 165
e 83 196
e 83 201
e 83 213
e 83 229
e 83 243
e 83 246
e 84 88
e 84 108
e 84 117
e 84 137
e 84 139
e 84 175
e 84 178
e 84 183
e 84 188
e 84 195
e 84 204
e 84 211
e 84 217
e 84 221
e 84 237
e 84 240
e 85 105
e 85 114
e 85 137
e 85 142
e 85 153
e 85 159
e 85 176
e 85 181
e 85 195
e 85 198
e 85 203
e 85 209
e 85 232
e 85 244
e 86 95
e 86 100
e 86 108
e 86 115
e 86 141
e 86 142
e 86 154
e 86 155
e 86 161
e 86 164
e 86 175
e 86 183
e 86 187
e 86 198
e 86 211
e 86 231
e 86 241
e 86 244
e 87 119
e 87 141
e 87 149
e 87 153
e 87 155
e 87 167
e 87 174
e 87 184
e 87 196
e 87 213
e 87 232
e 87 241
e 88 90
e 88 92
e 88 97
e 88 124
e 88 130
e 88 135
e 88 138
e 88 142
e 88 143
e 88 144
e 88 156
e 88 163
e 88 169
e 88 177
e 88 180
e 88 184
e 88 203
e 88 209
e 88 221
e 88 225
e 88 228
e 88 233
e 88 234
e 88 236
e 88 239
e 88 248
e 89 98
e 89 112
e 89 116
e 89 120
e 89 134
e 89 140
e 89 185
e 89 196
e 89 218
e 89 233
e 89 236
e 89 246
e 90 102
e 90 116
e 90 117
e 90 130
e 90 138
e 90 139
e 90 143
e 90 154
e 90 162
e 90 178
e 90 181
e 90 188
e 90 192
e 90 193
e 90 195
e 90 214
e 90 220
e 90 221
e 90 222
e 90 227
e 90 229
e 90 231
e 90 238
e 91 102
e 91 105
e 91 137
e 91 153
e 91 161
e 91 169
e 91 188
e 91 195
e 91 202
e 91 208
e 91 211
e 91 217
e 91 228
e 92 100
e 92 103
e 92 129
e 92 133
e 92 137
e 92 147
e 92 150
e 92 153
e 92 179
e 92 187
e 92 201
e 92 226
e 92 230
e 92 239
e 92 240
e 92 241
e 92 248
e 93 94
e 93 99
e 93 111
e 93 118
e 93 131
e 93 132
e 93 137
e 93 139
e 93 140
e 93 143
e 93 146
e 93 164
e 93 169
e 93 171
e 93 174
e 93 187
e 93 198
e 93 221
e 93 225
e 93 242
e 94 95
e 94 104
e 94 118
e 94 128
e 94 131
e 94 141
e 94 149
e 94 157
e 94 171
e 94 176
e 94 196
e 94 207
e 94 225
e 94 228
e 94 234
e 94 244
e 95 113
e 95 122
e 95 126
e 95 136
e 95 164
e 95 167
e 95 194
e 95 210
e 95 211
e 95 219
e 95 224
e 96 105
e 96 114
e 96 120
e 96 126
e 96 136
e 96 151
e 96 156
e 96 206
e 96 215
e 96 227
e 96 229
e 96 236
e 96 239
e 96 247
e 97 100
e 97 103
e 97 113
e 97 139
e 97 155
e 97 159
e 97 174
e 97 181
e 97 205
e 97 209
e 97 213
e 97 224
e 97 249
e 98 99
e 98 100
e 98 104
e 98 150
e 98 173
e 98 175
e 98 199
e 98 201
e 98 203
e 98 213
e 98 215
e 98 222
e 98 244
e 99 112
e 99 118
e 99 126
e 99 141
e 99 172
e 99 173
e 99 180
e 99 201
e 99 207
e 99 216
e 99 224
e 99 238
e 99 248
e 100 101
e 100 121
e 100 136
e 100 149
e 100 150
e 100 161
e 100 163
e 100 169
e 100 173
e 100 177
e 100 183
e 100 205
e 100 208
e 100 214
e 100 215
e 100 218
e 100 223
e 100 239
e 100 245
e 100 246
e 100 247
e 101 103
e 101 107
e 101 109
e 101 131
e 101 147
e 101 153
e 101 163
e 101 164
e 101 165
e 101 183
e 101 196
e 101 198
e 101 203
e 101 216
e 101 221
e 101 224
e 101 245
e 102 104
e 102 123
e 102 124
e 102 134
e 102 145
e 102 178
e 102 201
e 102 204
e 102 222
e 102 233
e 102 237
e 102 246
e 103 107
e 103 116
e 103 118
e 103 123
e 103 134
e 103 137
e 103 160
e 103 162
e 103 163
e 103 173
e 103 179
e 103 191
e 103 213
e 103 215
e 103 225
e 103 241
e 104 124
e 104 134
e 104 142
e 104 143
e 104 148
e 104 152
e 104 155
e 104 161
e 104 168
e 104 173
e 104 193
e 104 196
e 104 211
e 104 215
e 104 227
e 104 241
e 104 245
e 105 111
e 105 124
e 105 126
e 105 134
e 105 148
e 105 155
e 105 158
e 105 163
e 105 169
e 105 171
e 105 174
e 105 187
e 105 200
e 105 201
e 105 207
e 105 209
e 105 231
e 105 237
e 106 108
e 106 111
e 106 121
e 106 146
e 106 154
e 106 164
e 106 168
e 106 200
e 106 215
e 106 216
e 106 236
e 106 238
e 107 132
e 107 145
e 107 152
e 107 154
e 107 159
e 107 168
e 107 190
e 107 200
e 107 201
e 107 206
e 107 229
e 107 234
e 107 248
e 108 110
e 108 128
e 108 134
e 108 139
e 108 140
e 108 145
e 108 153
e 108 168
e 108 170
e 108 175
e 108 197
e 108 213
e 108 214
e 108 227
e 108 231
e 109 121
e 109 127
e 109 132
e 109 142
e 109 155
e 109 158
e 109 165
e 109 190
e 109 199
e 109 220
e 109 221
e 109 225
e 109 236
e 109 238
e 109 242
e 109 246
e 110 111
e 110 118
e 110 120
e 110 148
e 110 178
e 110 181
e 110 197
e 110 206
e 110 219
e 110 234
e 111 124
e 111 140
e 111 142
e 111 155
e 111 188
e 111 223
e 111 226
e 111 235
e 111 243
e 112 114
e 112 121
e 112 123
e 112 129
e 112 130
e 112 136
e 112 138
e 112 140
e 112 148
e 112 179
e 112 180
e 112 182
e 112 196
e 112 204
e 112 215
e 112 217
e 112 220
e 112 235
e 112 241
e 113 120
e 113 123
e 113 127
e 113 138
e 113 162
e 113 163
e 113 203
e 113 231
e 113 234
e 113 235
e 113 238
e 114 120
e 114 126
e 114 128
e 114 132
e 114 142
e 114 146
e 114 147
e 114 152
e 114 155
e 114 190
e 114 208
e 114 216
e 114 218
e 114 240
e 114 243
e 114 249
e 115 148
e 115 149
e 115 155
e 115 158
e 115 169
e 115 181
e 115 199
e 115 205
e 115 224
e 115 235
e 115 245
e 116 118
e 116 123
e 116 141
e 116 144
e 116 153
e 116 157
e 116 166
e 116 181
e 116 197
e 116 202
e 116 208
e 116 214
e 116 216
e 116 220
e 116 224
e 116 234
e 116 245
e 117 131
e 117 139
e 117 153
e 117 163
e 117 167
e 117 175
e 117 177
e 117 180
e 117 189
e 117 213
e 117 219
e 117 225
e 117 235
e 117 236
e 117 246
e 118 129
e 118 141
e 118 146
e 118 149
e 118 152
e 118 169
e 118 172
e 118 178
e 118 179
e 118 180
e 118 187
e 118 197
e 118 203
e 118 205
e 118 206
e 118 212
e 118 213
e 118 222
e 119 130
e 119 139
e 119 145
e 119 160
e 119 174
e 119 179
e 119 181
e 119 193
e 119 201
e 119 209
e 119 230
e 119 245
e 120 171
e 120 172
e 120 184
e 120 189
e 120 191
e 120 213
e 120 220
e 120 245
e 120 249
e 121 122
e 121 123
e 121 131
e 121 134
e 121 140
e 121 185
e 121 201
e 121 213
e 121 236
e 121 249
e 122 144
e 122 145
e 122 146
e 122 147
e 122 155
e 122 179
e 122 186
e 122 217
e 122 236
e 123 134
e 123 139
e 123 141
e 123 144
e 123 154
e 123 174
e 123 200
e 123 224
e 123 226
e 123 233
e 123 239
e 123 248
e 124 125
e 124 127
e 124 133
e 124 137
e 124 150
e 124 154
e 124 205
e 124 208
e 124 225
e 124 234
e 124 245
e 125 136
e 125 158
e 125 159
e 125 160
e 125 179
e 125 186
e 125 208
e 125 209
e 125 218
e 125 224
e 125 238
e 126 138
e 126 146
e 126 150
e 126 156
e 126 165
e 126 171
e 126 190
e 126 191
e 126 192
e 126 194
e 126 229
e 126 238
e 126 244
e 127 129
e 127 149
e 127 168
e 127 170
e 127 178
e 127 186
e 127 189
e 127 229
e 127 230
e 128 131
e 128 134
e 128 137
e 128 141
e 128 142
e 128 144
e 128 150
e 128 167
e 128 175
e 128 180
e 128 183
e 128 198
e 128 206
e 128 233
e 129 172
e 129 205
e 129 226
e 129 229
e 130 151
e 130 157
e 130 162
e 130 163
e 130 166
e 130 174
e 130 194
e 130 210
e 130 219
e 130 229
e 130 230
e 130 236
e 130 244
e 130 247
e 130 249
e 131 140
e 131 149
e 131 156
e 131 160
e 131 162
e 131 167
e 131 176
e 131 179
e 131 181
e 131 188
e 131 206
e 131 231
e 131 244
e 131 249
e 132 155
e 132 188
e 132 192
e 132 200
e 132 211
e 132 214
e 132 225
e 132 227
e 132 228
e 133 138
e 133 142
e 133 152
e 133 158
e 133 162
e 133 164
e 133 167
e 133 179
e 133 182
e 133 183
e 133 185
e 133 187
e 133 205
e 133 212
e 133 234
e 133 247
e 134 137
e 134 139
e 134 160
e 134 164
e 134 165
e 134 170
e 134 174
e 134 176
e 134 179
e 134 182
e 134 183
e 134 187
e 134 197
e 134 214
e 134 219
e 135 153
e 135 156
e 135 162
e 135 163
e 135 171
e 135 175
e 135 203
e 135 221
e 135 229
e 135 232
e 135 234
e 135 246
e 136 139
e 136 140
e 136 159
e 136 189
e 136 195
e 136 238
e 136 241
e 136 243
e 136 244
e 137 144
e 137 146
e 137 147
e 137 160
e 137 175
e 137 178
e 137 205
e 137 209
e 137 217
e 137 228
e 137 237
e 138 142
e 138 160
e 138 181
e 138 200
e 138 224
e 138 227
e 138 247
e 139 146
e 139 147
e 139 151
e 139 175
e 139 182
e 139 187
e 139 194
e 139 200
e 139 210
e 139 214
e 139 216
e 139 236
e 139 248
e 140 142
e 140 147
e 140 148
e 140 155
e 140 156
e 140 157
e 140 158
e 140 192
e 140 207
e 140 221
e 140 248
e 141 143
e 141 155
e 141 158
e 141 172
e 141 197
e 141 204
e 141 229
e 141 231
e 141 246
e 142 158
e 142 162
e 142 168
e 142 169
e 142 171
e 142 193
e 142 222
e 142 230
e 142 239
e 142 244
e 142 248
e 143 144
e 143 145
e 143 151
e 143 154
e 143 162
e 143 163
e 143 170
e 143 183
e 143 201
e 143 205
e 143 213
e 143 214
e 143 216
e 143 217
e 143 221
e 143 234
e 143 238
e 143 239
e 143 240
e 143 241
e 143 242
e 143 243
e 143 248
e 144 147
e 144 155
e 144 160
e 144 167
e 144 181
e 144 185
e 144 189
e 144 205
e 144 219
e 144 226
e 144 229
e 145 154
e 145 157
e 145 163
e 145 165
e 145 167
e 145 174
e 145 175
e 145 192
e 145 194
e 145 221
e 145 223
e 145 249
e 146 152
e 146 166
e 146 169
e 146 186
e 146 190
e 146 197
e 146 218
e 146 222
e 146 245
e 146 248
e 147 151
e 147 165
e 147 172
e 147 180
e 147 181
e 147 185
e 147 186
e 147 195
e 147 199
e 147 226
e 147 245
e 148 176
e 148 181
e 148 200
e 148 203
e 148 227
e 148 229
e 148 242
e 148 245
e 148 247
e 149 164
e 149 188
e 149 218
e 149 239
e 149 240
e 149 245
e 150 151
e 150 154
e 150 166
e 150 169
e 150 173
e 150 184
e 150 190
e 150 195
e 150 209
e 150 223
e 150 225
e 150 227
e 150 237
e 151 164
e 151 209
e 151 224
e 151 225
e 151 248
e 152 158
e 152 159
e 152 161
e 152 162
e 152 168
e 152 174
e 152 184
e 152 227
e 152 228
e 152 245
e 152 247
e 153 156
e 153 160
e 153 161
e 153 162
e 153 169
e 153 174
e 153 183
e 153 198
e 153 218
e 153 237
e 153 246
e 154 156
e 154 158
e 154 175
e 154 190
e 154 192
e 154 199
e 154 216
e 154 220
e 154 234
e 154 236
e 154 241
e 154 243
e 154 244
e 154 245
e 154 249
e 155 156
e 155 186
e 155 187
e 155 191
e 155 201
e 155 215
e 155 218
e 155 228
e 155 233
e 155 246
e 155 247
e 156 161
e 156 168
e 156 193
e 156 195
e 156 209
e 156 214
e 156 226
e 156 232
e 156 235
e 157 161
e 157 176
e 157 179
e 157 207
e 157 209
e 157 212
e 157 213
e 157 227
e 157 234
e 157 237
e 157 239
e 158 160
e 158 178
e 158 194
e 158 209
e 158 212
e 158 216
e 158 234
e 159 182
e 159 194
e 159 218
e 159 231
e 159 245
e 159 247
e 160 166
e 160 170
e 160 184
e 160 203
e 160 206
e 160 208
e 160 219
e 160 226
e 160 236
e 160 237
e 160 248
e 161 168
e 161 180
e 161 197
e 161 225
e 161 233
e 161 236
e 161 248
e 162 164
e 162 170
e 162 175
e 162 181
e 162 182
e 162 191
e 162 204
e 162 210
e 162 222
e 162 231
e 162 235
e 162 243
e 162 247
e 163 164
e 163 185
e 163 190
e 163 195
e 163 203
e 163 222
e 163 225
e 163 227
e 163 234
e 163 236
e 163 239
e 163 242
e 163 245
e 164 179
e 164 181
e 164 189
e 164 200
e 164 203
e 164 205
e 164 220
e 164 221
e 164 223
e 164 225
e 164 238
e 164 239
e 164 248
e 165 169
e 165 217
e 165 227
e 165 241
e 166 168
e 166 173
e 166 186
e 166 191
e 166 212
e 166 245
e 166 246
e 167 177
e 167 185
e 167 190
e 167 192
e 167 224
e 167 226
e 167 236
e 167 247
e 167 248
e 168 170
e 168 171
e 168 178
e 168 191
e 168 192
e 168 195
e 168 197
e 168 198
e 168 210
e 168 216
e 168 223
e 168 229
e 168 236
e 169 187
e 169 215
e 169 220
e 169 229
e 169 231
e 169 234
e 169 246
e 169 247
e 169 249
e 170 173
e 170 174
e 170 184
e 170 198
e 170 204
e 170 213
e 170 218
e 170 219
e 170 222
e 170 226
e 170 228
e 171 184
e 171 189
e 171 201
e 171 236
e 172 182
e 172 195
e 172 200
e 172 234
e 173 175
e 173 183
e 173 189
e 173 193
e 173 194
e 173 200
e 173 202
e 173 247
e 174 198
e 174 199
e 174 213
e 174 225
e 174 242
e 174 248
e 174 249
e 175 179
e 175 181
e 175 195
e 175 198
e 175 201
e 175 207
e 175 213
e 175 219
e 175 236
e 175 240
e 175 243
e 175 248
e 176 182
e 176 183
e 176 206
e 176 213
e 176 227
e 176 243
e 176 247
e 177 201
e 177 203
e 177 213
e 177 216
e 178 202
e 178 204
e 178 205
e 178 212
e 178 224
e 178 225
e 178 226
e 178 245
e 178 246
e 179 185
e 179 188
e 179 209
e 179 233
e 179 241
e 179 247
e 180 183
e 180 201
e 180 206
e 180 209
e 180 216
e 180 218
e 180 224
e 180 232
e 180 235
e 180 237
e 180 245
e 180 249
e 181 183
e 181 190
e 181 198
e 181 202
e 181 227
e 181 234
e 181 235
e 181 244
e 182 202
e 182 210
e 182 229
e 182 230
e 182 244
e 183 192
e 183 195
e 183 204
e 183 208
e 183 210
e 183 227
e 183 230
e 183 232
e 183 235
e 183 245
e 184 195
e 184 225
e 184 234
e 184 248
e 185 195
e 185 198
e 185 227
e 185 245
e 186 188
e 186 189
e 186 202
e 186 213
e 186 218
e 186 241
e 186 246
e 187 189
e 187 191
e 187 195
e 187 214
e 187 224
e 187 233
e 187 239
e 187 240
e 187 248
e 188 193
e 188 198
e 188 209
e 188 210
e 188 213
e 188 231
e 188 244
e 189 238
e 190 199
e 190 200
e 190 208
e 190 229
e 190 246
e 191 220
e 192 211
e 192 223
e 192 228
e 192 237
e 192 240
e 192 249
e 193 202
e 193 216
e 193 233
e 193 246
e 194 213
e 194 216
e 194 218
e 194 219
e 194 226
e 194 241
e 194 246
e 195 198
e 195 203
e 195 215
e 195 224
e 195 226
e 195 229
e 195 241
e 195 249
e 196 206
e 196 233
e 196 242
e 197 218
e 197 232
e 198 210
e 198 214
e 198 216
e 198 227
e 198 229
e 198 233
e 198 240
e 198 244
e 199 206
e 199 210
e 199 224
e 199 229
e 200 206
e 200 228
e 201 208
e 201 213
e 201 223
e 201 249
e 202 209
e 202 242
e 202 249
e 203 204
e 203 220
e 203 231
e 203 232
e 203 238
e 203 240
e 204 208
e 204 215
e 205 211
e 205 226
e 205 227
e 205 237
e 205 245
e 205 248
e 206 215
e 206 225
e 206 234
e 206 236
e 206 237
e 206 243
e 206 245
e 206 246
e 206 247
e 206 249
e 207 213
e 207 215
e 207 222
e 207 225
e 207 232
e 207 237
e 208 210
e 208 230
e 208 233
e 209 220
e 209 233
e 209 236
e 209 241
e 209 247
e 210 215
e 210 224
e 210 227
e 210 228
e 210 229
e 210 242
e 211 217
e 211 220
e 211 241
e 211 242
e 212 224
e 212 227
e 212 235
e 213 215
e 213 226
e 213 233
e 213 247
e 213 248
e 214 224
e 214 233
e 214 234
e 214 242
e 215 217
e 215 218
e 216 220
e 216 242
e 216 245
e 217 222
e 217 244
e 217 249
e 218 240
e 218 243
e 219 224
e 219 229
e 219 242
e 219 245
e 220 223
e 220 245
e 221 223
e 221 231
e 221 241
e 221 243
e 223 228
e 223 232
e 223 245
e 224 233
e 224 241
e 225 236
e 225 239
e 225 241
e 225 245
e 225 249
e 226 228
e 226 234
e 226 237
e 226 244
e 227 246
e 228 229
e 228 230
e 228 239
e 228 245
e 228 249
e 230 240
e 230 245
e 230 249
e 231 234
e 232 241
e 232 243
e 232 246
e 234 235
e 234 239
e 234 245
e 235 236
e 235 249
e 238 241
e 238 244
e 240 244
e 240 249
e 241 246
e 245 249
